16156.45,43.1,48.97
16132.65,43.17,49.04
15720.76,44.3,50.32
15166.54,45.92,52.16
15742.06,44.24,50.26
14133.08,49.27,55.98
13969.05,49.85,56.63
13554.03,51.38,58.37
14686.99,47.42,53.86
14844.48,46.91,53.29
16115.35,43.21,49.09
14237.48,48.91,55.57
16762.84,41.54,47.2
15629.74,44.56,50.62
15802.54,44.07,50.06
15179.87,45.88,52.12
15636.73,44.54,50.59
15201.95,45.81,52.04
16753.74,41.57,47.22
16527.36,42.14,47.87
